\ LP format - for model browsing. Use MPS format to capture full model detail.
Maximize
  - 250 x[1] - 250 x[2] - 250 x[3] - 250 x[4] - 250 x[5] + 250 y[1,1]
   + 250 y[1,2] + 250 y[1,3] + 250 y[1,4] + 250 y[1,5] + 125 y[2,1]
   + 125 y[2,2] + 125 y[2,3] + 125 y[2,4] + 125 y[2,5] + 300 y[3,1]
   + 300 y[3,2] + 300 y[3,3] + 300 y[3,4] + 300 y[3,5] + 150 y[4,1]
   + 150 y[4,2] + 150 y[4,3] + 150 y[4,4] + 150 y[4,5]
Subject To
 R0: y[1,1] + y[1,2] + y[1,3] + y[1,4] + y[1,5] <= 1
 R1: y[2,1] + y[2,2] + y[2,3] + y[2,4] + y[2,5] <= 1
 R2: y[3,1] + y[3,2] + y[3,3] + y[3,4] + y[3,5] <= 1
 R3: y[4,1] + y[4,2] + y[4,3] + y[4,4] + y[4,5] <= 1
 R4: - x[1] + y[1,1] <= 0
 R5: - x[2] + y[1,2] <= 0
 R6: - x[3] + y[1,3] <= 0
 R7: - x[4] + y[1,4] <= 0
 R8: - x[5] + y[1,5] <= 0
 R9: - x[1] + y[2,1] <= 0
 R10: - x[2] + y[2,2] <= 0
 R11: - x[3] + y[2,3] <= 0
 R12: - x[4] + y[2,4] <= 0
 R13: - x[5] + y[2,5] <= 0
 R14: - x[1] + y[3,1] <= 0
 R15: - x[2] + y[3,2] <= 0
 R16: - x[3] + y[3,3] <= 0
 R17: - x[4] + y[3,4] <= 0
 R18: - x[5] + y[3,5] <= 0
 R19: - x[1] + y[4,1] <= 0
 R20: - x[2] + y[4,2] <= 0
 R21: - x[3] + y[4,3] <= 0
 R22: - x[4] + y[4,4] <= 0
 R23: - x[5] + y[4,5] <= 0
Bounds
Binaries
 x[1] x[2] x[3] x[4] x[5] y[1,1] y[1,2] y[1,3] y[1,4] y[1,5] y[2,1] y[2,2]
 y[2,3] y[2,4] y[2,5] y[3,1] y[3,2] y[3,3] y[3,4] y[3,5] y[4,1] y[4,2]
 y[4,3] y[4,4] y[4,5]
End
